c 84_win_checker.cnf
c
c field = 84
c formula set type = win_checker
c
p cnf 5 80
158 
160 
162 
164 
-156 
159 
161 
163 
165 
-157 
158 
160 
162 
164 
-168 
159 
161 
163 
165 
-169 
160 
162 
164 
168 
-158 
161 
163 
165 
169 
-159 
160 
162 
164 
168 
-170 
161 
163 
165 
169 
-171 
162 
164 
168 
170 
-160 
163 
165 
169 
171 
-161 
162 
164 
168 
170 
-172 
163 
165 
169 
171 
-173 
164 
168 
170 
172 
-162 
165 
169 
171 
173 
-163 
164 
168 
170 
172 
-174 
165 
169 
171 
173 
-175 
168 
170 
172 
174 
-164 
169 
171 
173 
175 
-165 
168 
170 
172 
174 
-176 
169 
171 
173 
175 
-177 
46 
76 
106 
136 
-16 
47 
77 
107 
137 
-17 
46 
76 
106 
136 
-196 
47 
77 
107 
137 
-197 
76 
106 
136 
196 
-46 
77 
107 
137 
197 
-47 
76 
106 
136 
196 
-226 
77 
107 
137 
197 
-227 
106 
136 
196 
226 
-76 
107 
137 
197 
227 
-77 
106 
136 
196 
226 
-256 
107 
137 
197 
227 
-257 
136 
196 
226 
256 
-106 
137 
197 
227 
257 
-107 
136 
196 
226 
256 
-286 
137 
197 
227 
257 
-287 
196 
226 
256 
286 
-136 
197 
227 
257 
287 
-137 
196 
226 
256 
286 
-316 
197 
227 
257 
287 
-317 
38 
70 
102 
134 
-6 
39 
71 
103 
135 
-7 
38 
70 
102 
134 
-198 
39 
71 
103 
135 
-199 
70 
102 
134 
198 
-38 
71 
103 
135 
199 
-39 
70 
102 
134 
198 
-230 
71 
103 
135 
199 
-231 
102 
134 
198 
230 
-70 
103 
135 
199 
231 
-71 
102 
134 
198 
230 
-262 
103 
135 
199 
231 
-263 
134 
198 
230 
262 
-102 
135 
199 
231 
263 
-103 
134 
198 
230 
262 
-294 
135 
199 
231 
263 
-295 
198 
230 
262 
294 
-134 
199 
231 
263 
295 
-135 
198 
230 
262 
294 
-326 
199 
231 
263 
295 
-327 
54 
82 
110 
138 
-26 
55 
83 
111 
139 
-27 
54 
82 
110 
138 
-194 
55 
83 
111 
139 
-195 
82 
110 
138 
194 
-54 
83 
111 
139 
195 
-55 
82 
110 
138 
194 
-222 
83 
111 
139 
195 
-223 
110 
138 
194 
222 
-82 
111 
139 
195 
223 
-83 
110 
138 
194 
222 
-250 
111 
139 
195 
223 
-251 
138 
194 
222 
250 
-110 
139 
195 
223 
251 
-111 
138 
194 
222 
250 
-278 
139 
195 
223 
251 
-279 
194 
222 
250 
278 
-138 
195 
223 
251 
279 
-139 
194 
222 
250 
278 
-306 
195 
223 
251 
279 
-307 
